TOUR_SECTION
52
57
105
34
116
30
13
83
168
22
100
180
15
93
169
187
182
158
8
104
82
142
191
60
200
121
85
63
23
128
47
1
41
48
183
81
125
6
178
67
133
155
197
159
119
46
137
24
193
31
114
131
84
38
98
184
66
56
103
18
99
161
112
7
95
78
59
89
21
176
138
51
33
10
195
113
163
61
185
123
147
149
108
171
25
73
69
150
90
2
124
120
42
130
110
74
167
141
65
50
14
68
127
12
39
194
106
44
151
32
145
16
154
122
118
174
129
190
170
186
135
173
55
64
45
139
29
71
199
27
19
107
117
58
175
20
43
192
188
91
40
179
94
109
36
146
4
164
126
144
153
156
88
157
189
148
177
136
132
111
28
162
160
76
3
79
115
37
9
166
87
198
5
11
196
49
26
77
172
80
75
102
140
134
72
54
53
17
96
143
92
35
181
62
70
152
101
165
97
86
-1
EOF